%nproc=1
#p Freq
external='/mlatom/software/miniconda3/bin/python /mlatom/software/mlatom_xacs/mlatom/interfaces/gaussian_interface.py model_predict_kwargs'

d7cb446f-8f9e-4f56-ae12-2ef0924d0e2b

0 1
C             1.4987832937000           0.0477677920000          -0.1108485520000
C             0.6661107913000           1.3061448460000          -0.0567598888000
H             2.3870182524000           0.1635446012000           0.5259304210000
H             1.8880665449000          -0.0902610368000          -1.1325236945000
H             1.1996472568000           2.2546809180000          -0.1120633768000
C            -0.6661233212000           1.3061392970000           0.0567663157000
C            -1.4987869708000           0.0477543101000           0.1108331790000
H            -1.1996666815000           2.2546704885000           0.1120852819000
H            -2.3870042467000           0.1635227664000          -0.5259718363000
H            -1.8880963351000          -0.0902746485000           1.1324980883000
C             0.6980128635000          -1.1922454246000           0.3189232265000
C            -0.6979979554000          -1.1922574314000          -0.3189127671000
H             0.5923661622000          -1.1917685658000           1.4128545421000
H             1.2443969290000          -2.1060613109000           0.0549370277000
H            -0.5923482458000          -1.1917984421000          -1.4128437766000
H            -1.2443718430000          -2.1060751056000          -0.0549117558000


