%nproc=1
#p Freq
external='/mlatom/software/miniconda3/bin/python /mlatom/software/mlatom_xacs/mlatom/interfaces/gaussian_interface.py model_predict_kwargs'

21ac72c0-7237-47e4-bf02-419e7bfe13d5

0 1
C             1.9709991244812          -2.3041531050740          -2.3659887963967
C             0.5555174084348          -2.3054552700205          -2.6744257443497
C            -0.0390220022507          -1.1778168671089          -3.2381255517200
C             0.7648052362443          -0.0059266704643          -3.5259869092266
C             2.1266264420369          -0.0059111192272          -3.2322294862986
C             2.7421573406129          -1.1775429633917          -2.6400950589902
C             2.1603435236668          -3.0276836154979          -1.1235776417922
C             0.8601371655684          -3.4745611144944          -0.6635368905960
C            -0.1296934465985          -3.0254733833020          -1.6240127214912
C            -1.3711328912121          -2.5784085535201          -1.1785189463746
C            -1.3373076096419          -0.7341078274040          -2.7788619484687
C            -0.0382339909481           1.1674676803517          -3.2420165807292
C             0.5570942406447           2.2965639626075          -2.6820839435373
C             1.9725811456684           2.2953072100251          -2.3736521251551
C             2.7429616671548           1.1672586918571          -2.6439994060213
C             3.7350268263395           0.7208092565998          -1.6857512073821
C             3.7345261448276          -0.7285900782670          -1.6833339992345
C             3.9162442968218          -1.4230759182064          -0.4893261489116
C             3.1131502391253          -2.5956220728435          -0.2036397354313
C             0.5641524672182          -3.4718969219601           0.6972464278496
C             1.5556416942427          -3.0228909544354           1.6552109175831
C             2.8047882909524          -2.5931493976652           1.2132493869442
C             3.4170063329839          -1.4190194429408           1.8032136330482
C             4.1045768697606          -0.6963547352122           0.7510651083488
C             4.1050641591572           0.6964298943737           0.7487410629081
C             3.9172338250231           1.4191435999723          -0.4940670531461
C             3.1149598537639           2.5931962856019          -0.2122957211286
C             2.1624450344637           3.0228495762997          -1.1336674008473
C            -1.3368431812919           0.7262220100338          -2.7813095918191
C            -0.7321362783279           3.0247950236162           1.1476546646362
C            -1.6773538315583           2.5799264369868           0.2264742415124
C            -2.4809971519910           1.4173017596534           0.5053416940721
C            -2.3101726561794           0.7337892294663           1.6948610106013
C            -1.3219304859766           1.1777631323567           2.6541845975709
C             0.8690778090539           2.3043607044736           2.6965308401654
C             1.5577785144525           3.0277634867475           1.6451296960344
C             0.5665997424322           3.4742688984432           0.6856754141716
C             0.8625557853438           3.4721768365229          -0.6751181252218
C            -0.1276092810981           3.0205838607760          -1.6340873922742
C            -1.3693793719540           2.5759009078982          -1.1871268202747
C            -2.4820888373126          -1.4134360344395           0.5100343065849
C            -2.3107571569896          -0.7260432579476           1.6972682550056
C            -1.3227986144481          -1.1675004304948           2.6580584886697
C            -0.7115981664134           0.0058993459682           3.2504912169121
C             0.6497749343591           0.0059130501519           3.5495824841374
C             1.4558086414692           1.1774420205659           3.2664625468697
C             2.8066127684501           2.5956659996003           1.2045967119023
C             3.4180048287805           1.4230787915847           1.7984745538035
C             2.7563004560684           0.7285918492151           2.8088860706949
C             2.7557890875862          -0.7207065496522           2.8113021172244
C             1.4549827224349          -1.1671155197755           3.2703687797661
C             0.8674439534916          -2.2954997975256           2.7041849050561
C            -0.5482063072094          -2.2965589801336           2.3959287269250
C            -0.7342800106906          -3.0199646603131           1.1577149228995
C            -1.6791919042847          -2.5775108384523           0.2350639682887
C            -1.9897962336735           1.4147317553062          -1.7738143317104
C            -1.9907153969271          -1.4188060400859          -1.7690955799685
C            -0.5465711137188           2.3054017395726           2.3882857486302
C            -2.7961991269413           0.7243937580828          -0.7548854047897
C            -2.7967570751748          -0.7245640516835          -0.7525876764837
C            -5.5973626425663          -0.7120023309175          -0.2135977510111
C            -5.5970634809234           0.7120478356348          -0.2138286686109
C            -6.0958213489250          -1.4821815512333           0.9878434440894
H            -6.1605457635230          -2.5506726719976           0.7653187954730
H            -5.4100278259380          -1.3628668803411           1.8369542250462
H            -7.0861245789990          -1.1471682011169           1.3114696629145
C            -6.0946302364973           1.4826911625450           0.9876732379675
H            -7.0852036029071           1.1486129653500           1.3114650579615
H            -5.4088647067948           1.3627881578050           1.8367173878696
H            -6.1584248975457           2.5512427865211           0.7651572850562
C            -4.8795557102950           1.3990791550101          -1.1842691519307
H            -4.7344151935838           0.9963311574784          -2.1763226456779
H            -4.7935555051677           2.4804495786610          -1.1214116136600
C            -4.8794572991847          -1.3994308475910          -1.1834544952966
H            -4.7936775259081          -2.4808111457252          -1.1203537307959
H            -4.7337947911070          -0.9970297863521          -2.1755814697044


