%nproc=1
#p Freq
external='/mlatom/software/miniconda3/bin/python /mlatom/software/mlatom_xacs/mlatom/interfaces/gaussian_interface.py model_predict_kwargs'

156c8fa9-9f52-497e-8382-ec2d2ddc5aa0

0 1
C             1.9857665342933          -2.2999626588077          -2.3651626390500
C             0.5699495603581          -2.3051071537356          -2.6740967003433
C            -0.0262958915893          -1.1782684964148          -3.2381699568594
C             0.7736895298579          -0.0038638355935          -3.5209123364479
C             2.1350468620629           0.0005197086293          -3.2283149775056
C             2.7530577675759          -1.1701858013155          -2.6364722814703
C             2.1758260817632          -3.0233972023427          -1.1223618564199
C             0.8763182222695          -3.4739629244290          -0.6645334949185
C            -0.1146565375138          -3.0264762914834          -1.6244991096366
C            -1.3631836825137          -2.5905971541542          -1.1852988012861
C            -1.3293803436020          -0.7388270767317          -2.7873485628751
C            -0.0328572071693           1.1664696974845          -3.2407732987776
C             0.5566446811334           2.2980368922727          -2.6790263587149
C             1.9724580748456           2.3021260420646          -2.3702887184480
C             2.7462453177280           1.1762056304712          -2.6391362873495
C             3.7380013623756           0.7322603690487          -1.6801674498519
C             3.7422064424953          -0.7182840761930          -1.6785424796390
C             3.9245521666998          -1.4125823930673          -0.4852686459833
C             3.1254557586557          -2.5885079805757          -0.2014987369118
C             0.5789741241836          -3.4739830318062           0.6952099805031
C             1.5673579346609          -3.0224930126669           1.6546795264016
C             2.8149467462288          -2.5878705541209           1.2152276389033
C             3.4220001538722          -1.4114611606478           1.8063704424389
C             4.1082896565971          -0.6854436288894           0.7556503641302
C             4.1041832325163           0.7070149619536           0.7541049674285
C             3.9162358001530           1.4302905081704          -0.4884390132361
C             3.1102569248757           2.6021600893864          -0.2072416019915
C             2.1582331391739           3.0295136057971          -1.1290914295235
C            -1.3331140745788           0.7204217403309          -2.7888759299245
C            -0.7404418883906           3.0190317477455           1.1448655975188
C            -1.6859425525460           2.5746071547472           0.2237515511245
C            -2.4883688440817           1.4082430519621           0.5039552436442
C            -2.3193457990156           0.7230229801202           1.6963902213734
C            -1.3264317864648           1.1690225259549           2.6502088619771
C             0.8603092220309           2.3040597488803           2.6975168055150
C             1.5491822821224           3.0307563277823           1.6477953481205
C             0.5581430344102           3.4742234178649           0.6873927296750
C             0.8560324200520           3.4733106768753          -0.6721772647454
C            -0.1321357054793           3.0175507033917          -1.6308566069109
C            -1.3773362369603           2.5742457678234          -1.1896670170438
C            -2.4760255878681          -1.4248943720714           0.5071061309059
C            -2.3149785519676          -0.7369021160680           1.6985209460010
C            -1.3193149299927          -1.1756207110490           2.6536523053155
C            -0.7105872826620          -0.0007415544410           3.2436471159982
C             0.6485568240023           0.0036039640827           3.5472544368205
C             1.4504429123690           1.1787849917081           3.2667211974734
C             2.7995146170023           2.6027564351962           1.2094424880267
C             3.4135326082591           1.4312950725013           1.8031663072358
C             2.7524941109285           0.7342933228720           2.8114115867344
C             2.7568625713020          -0.7161634375068           2.8130935918212
C             1.4575270071730          -1.1674369564583           3.2695759572690
C             0.8742564414525          -2.2976206073107           2.7029867840942
C            -0.5408431934872          -2.3027258096988           2.3909569493277
C            -0.7219426620839          -3.0257257353422           1.1518856229963
C            -1.6695092709776          -2.5886348797294           0.2289661881044
C            -1.9901656586298           1.4067964937696          -1.7790771901636
C            -1.9836127477296          -1.4274470018637          -1.7768805480396
C            -0.5548070371194           2.2999963381595           2.3852150838452
C            -2.7834650198407           0.7093656621403          -0.7569191001374
C            -2.7787687466736          -0.7318114781740          -0.7540105153925
C            -5.6050813782737          -0.7200422669704          -0.1941258774599
C            -5.5941682713759           0.7106281868099          -0.2069768657911
C            -6.1474597445330          -1.4766877868100           0.9975119462720
H            -6.9844355779401          -2.1212249134549           0.6942517112573
H            -5.3719796059688          -2.1193109200720           1.4355649805568
H            -6.5147662371289          -0.7870766215476           1.7655395470367
C            -6.1083352937785           1.5176376615718           0.9676298887734
H            -7.1969871006912           1.4228840834932           1.0770915575586
H            -5.6525188632202           1.2214829978213           1.9185861271281
H            -5.8895240251095           2.5773992178396           0.8235273652616
C            -4.9007634013842           1.3760786299885          -1.2025306741775
H            -4.7351565020812           0.9409272202300          -2.1793175647650
H            -4.8051984542225           2.4585155665106          -1.1755136762176
C            -4.9097500546554          -1.4148144612084          -1.1663756619237
H            -4.8338937357769          -2.4980476987757          -1.1049810217523
H            -4.7364243531068          -1.0102679313297          -2.1552239269833


