%nproc=1
#p Freq
external='/mlatom/software/miniconda3/bin/python /mlatom/software/mlatom_xacs/mlatom/interfaces/gaussian_interface.py model_predict_kwargs'

2a332737-500e-496a-afbf-8eedd5121e8c

0 1
C             1.9527725395236          -2.2897651114560          -2.3618276416823
C             0.5440851720763          -2.2902202427672          -2.6648295179615
C            -0.0466044841536          -1.1657856798477          -3.2270946472387
C             0.7518422502801           0.0001119923730          -3.5104130170528
C             2.1092161216734           0.0000639943077          -3.2204871292800
C             2.7210648058086          -1.1662412168384          -2.6344435426212
C             2.1432694334848          -3.0106424206103          -1.1277990842565
C             0.8516896970885          -3.4556081280857          -0.6684396220848
C            -0.1359310647929          -3.0078300487989          -1.6188223004739
C            -1.3776434919278          -2.5720709121015          -1.1755373517934
C            -1.3381043528575          -0.7223546101529          -2.7704490238769
C            -0.0465071955748           1.1660398031954          -3.2269838539738
C             0.5442543018548           2.2903897858078          -2.6646428190106
C             1.9529457076043           2.2898349554605          -2.3616630314767
C             2.7211687760514           1.1662859318867          -2.6343714081445
C             3.7091202643395           0.7208568180474          -1.6845675948570
C             3.7089848300643          -0.7209341040107          -1.6845779073434
C             3.8924627026305          -1.4149683285272          -0.4964780971883
C             3.0947711461030          -2.5814543656519          -0.2128157044411
C             0.5596127282531          -3.4559633073365           0.6880812274373
C             1.5474324539319          -3.0109706249024           1.6385322253978
C             2.7911610647786          -2.5815129667109           1.1964892177084
C             3.4011901692439          -1.4150035133750           1.7834921096843
C             4.0820627155623          -0.6941964199748           0.7373353943883
C             4.0820673714338           0.6938976349384           0.7373600814355
C             3.8925492197252           1.4147767289651          -0.4963882142773
C             3.0949615792935           2.5813149234023          -0.2126422115758
C             2.1434808770505           3.0106237088792          -1.1275891601554
C            -1.3380245849932           0.7226710761626          -2.7703557023645
C            -0.7314641809459           3.0081664995103           1.1476894608975
C            -1.6804557042592           2.5719403502170           0.2322513497119
C            -2.4806453310730           1.4104012322433           0.5126528039019
C            -2.3013328696670           0.7229519543105           1.7012807565789
C            -1.3127616251815           1.1659535469766           2.6495122646804
C             0.8657381761363           2.2898140071022           2.6847179497070
C             1.5476340865331           3.0107925375120           1.6387350514582
C             0.5598397180287           3.4559139154062           0.6883212140211
C             0.8519261553451           3.4556327640933          -0.6681951147485
C            -0.1357226419686           3.0079695407694          -1.6185961717812
C            -1.3774662234032           2.5722622234636          -1.1753409991552
C            -2.4806657115649          -1.4102013228501           0.5125386779658
C            -2.3013730923866          -0.7228741649959           1.7012442427190
C            -1.3128329720382          -1.1660037944282           2.6494359561634
C            -0.7018127680937          -0.0000633012924           3.2364798501432
C             0.6544288930062          -0.0001206854539           3.5313371289699
C             1.4534246751238           1.1661699201366           3.2494120311547
C             2.7913388273208           2.5812896069094           1.1966622202424
C             3.4012879569373           1.4146939760365           1.7835769962246
C             2.7447666551182           0.7207095453467           2.7907365603398
C             2.7447160409098          -0.7210446260320           2.7907069081694
C             1.4533425422846          -1.1664486469511           3.2493400246220
C             0.8655841507634          -2.2900161864000           2.6845638494491
C            -0.5428445957586          -2.2907097057757           2.3805302491526
C            -0.7316559633350          -3.0081586208453           1.1474777442822
C            -1.6806048811507          -2.5718080847724           0.2320586707245
C            -1.9920876020706           1.4106927390563          -1.7611903303824
C            -1.9921932815241          -1.4104092178809          -1.7613132295819
C            -0.5426953625960           2.2906242969686           2.3806908456936
C            -2.7250737354664           0.7040170049976          -0.7294240465286
C            -2.7249334603739          -0.7037044651590          -0.7294422334111
C            -5.5167115237100          -0.7242801230660          -0.2099658417472
C            -5.5164983575534           0.7242970794220          -0.2102387867916
C            -5.9610417268252          -1.4344379113137           1.0335546860747
H            -5.9040837071281          -2.5113608806706           0.8988710471439
H            -5.3307701904516          -1.1613369893021           1.8792765150709
H            -6.9877462741027          -1.1709427100534           1.2815230092119
C            -5.9606839447200           1.4350497839840           1.0329857169325
H            -6.9875393837042           1.1720660872780           1.2808857279634
H            -5.3306605194097           1.1619533305835           1.8788942473742
H            -5.9032536548890           2.5119048859514           0.8979614091526
C            -4.9729927927514           1.4320478317120          -1.2207070375280
H            -4.7530220102293           1.0109029829271          -2.1838938240164
H            -4.9037053027633           2.5059204327542          -1.1610504368589
C            -4.9736858528176          -1.4325912286719          -1.2202701926316
H            -4.9046510490816          -2.5064541338863          -1.1601967757045
H            -4.7534224872202          -1.0118347409575          -2.1835563110177


