%nproc=1
#p Freq
external='/mlatom/software/miniconda3/bin/python /mlatom/software/mlatom_xacs/mlatom/interfaces/gaussian_interface.py model_predict_kwargs'

bc750d42-3f0b-40f7-b937-d922937e5ac3

0 1
C            -1.5017596724706           0.0524875897394           0.1071207455041
C            -0.6665239777981           1.3120838376707           0.0470876298593
H            -2.3761428912967           0.1716396084812          -0.5462677592562
H            -1.9060093432894          -0.0584799591282           1.1241254351796
H            -1.2127359616026           2.2534040385022           0.1089773201508
C             0.6665181891434           1.3120867689156          -0.0470874791486
C             1.5017596694490           0.0524934831844          -0.1071212240264
H             1.2127266133152           2.2534088737367          -0.1089767275104
H             2.3761425868860           0.1716492330753           0.5462669853107
H             1.9060092540574          -0.0584726351685          -1.1241260577037
C            -0.7063329052003          -1.2020190159285          -0.2992092602695
C             0.7063379647827          -1.2020160855753           0.2992095331762
H            -0.6268571793718          -1.2355768643133          -1.3922351645467
H            -1.2468224318835          -2.1063516706979           0.0084345693923
H             0.6268624606741          -1.2355734523728           1.3922354290739
H             1.2468312850733          -2.1063466401567          -0.0084337006658


