%nproc=1
#p Freq
external='/mlatom/software/miniconda3/bin/python /mlatom/software/mlatom_xacs/mlatom/interfaces/gaussian_interface.py model_predict_kwargs'

c49a612d-3e33-4b82-a012-edc43af79acf

0 1
C            -1.9229084529544           2.2944742100043          -2.3733052894028
C            -0.5110579062023           2.2945026311059          -2.6552300970448
C             0.0936151028111           1.1660989673010          -3.1994716094278
C            -0.7004596733094           0.0011250157684          -3.4919373950486
C            -2.0627532284432           0.0010774050925          -3.2288685530711
C            -2.6850128946377           1.1679517990291          -2.6531700982517
C            -2.1293867177722           3.0152199874812          -1.1409825178097
C            -0.8432834014256           3.4583031925545          -0.6652886648399
C             0.1536483254640           3.0045988624351          -1.6034388552693
C             1.3868750920931           2.5499878946792          -1.1454715961019
C             1.3793131331546           0.7314846679749          -2.7297702057859
C             0.0935547220916          -1.1640777760107          -3.2002196363385
C            -0.5111868018400          -2.2927952268063          -2.6567028617925
C            -1.9230380234297          -2.2928715682688          -2.3747781440048
C            -2.6850842273141          -1.1661309660553          -2.6539232634900
C            -3.6828654756031          -0.7208664837803          -1.7172986259487
C            -3.6828062027151           0.7221401708616          -1.7168239697394
C            -3.8822190109620           1.4159258492682          -0.5305084184502
C            -3.0908418085215           2.5837871856049          -0.2371090485295
C            -0.5670749802899           3.4576441537235           0.6935809473712
C            -1.5655244763359           3.0142252934906           1.6333688905594
C            -2.8035958322243           2.5833144222619           1.1762359904119
C            -3.4178277121599           1.4151775624939           1.7545554856750
C            -4.0851806864996           0.6940516193535           0.7002361741766
C            -4.0852061607112          -0.6942966735928           0.6997912459671
C            -3.8822975501964          -1.4153958804907          -0.5314175061247
C            -3.0909858740279          -2.5834891508708          -0.2387650918743
C            -2.1295550022410          -3.0143955924756          -1.1429155326220
C             1.3792791396853          -0.7298306420140          -2.7302389158723
C             0.7166056702707          -3.0038625604747           1.1658589633040
C             1.6726834750028          -2.5483146311275           0.2626041302478
C             2.4782233892374          -1.4063413926559           0.5499218237967
C             2.2846143207253          -0.7308352046315           1.7248332665323
C             1.2846060110720          -1.1659214218220           2.6593018406763
C            -0.8946322071967          -2.2944070984280           2.6854149877078
C            -1.5656962191561          -3.0152109678552           1.6314452986623
C            -0.5672758009808          -3.4580867480239           0.6913724540130
C            -0.8434781829419          -3.4578536864224          -0.6675013749669
C             0.1534757539100          -3.0036026036939          -1.6053642851491
C             1.3867191402797          -2.5493426485803          -1.1471013661945
C             2.4784046784335           1.4058780368528           0.5508086708340
C             2.2846857982215           0.7296157000377           1.7252889204421
C             1.2846829065041           1.1641410159291           2.6600322222856
C             0.6675417816597          -0.0010558366469           3.2387396770750
C            -0.6895288336128          -0.0011159365538           3.5279248896680
C            -1.4870905468229          -1.1679869038906           3.2406671611065
C            -2.8037389068077          -2.5839366300828           1.1745812844038
C            -3.4178975362737          -1.4161334265678           1.7536499496464
C            -2.7712271309110          -0.7223162894846           2.7679941704885
C            -2.7711955888964           0.7206752714261           2.7684524609555
C            -1.4870310960181           1.1659765523748           3.2414072723273
C            -0.8945016605795           2.2927146168497           2.6868762154445
C             0.5153778557944           2.2926095844281           2.3953722007552
C             0.7167890944910           3.0030537883807           1.1677704614704
C             1.6728672049573           2.5480514429890           0.2642305922912
C             2.0183601510409          -1.4087644552608          -1.7267765075429
C             2.0184423072777           1.4097434820250          -1.7258809203078
C             0.5152441337557          -2.2941854846600           2.3939135281581
C             2.9883590162383          -0.7846171361923          -0.7392206091602
C             2.9884688237391           0.7849272089819          -0.7387662433377
C             5.3991631587881           0.6662412525459          -0.0810459136841
C             5.3988157608374          -0.6663688431004          -0.0809837860548
C             6.2181203506103           1.5776461661984           0.7746559554544
H             6.7540171623841           2.2935242341551           0.1516035527693
H             5.5637645716455           2.1405207282658           1.4414106613152
H             6.9398240796329           1.0367493342343           1.3778072004509
C             6.2174157028576          -1.5781096002980           0.7746995981034
H             6.7538598710496          -2.2935386321156           0.1515967991356
H             6.9386048539922          -1.0374180169374           1.3786490923036
H             5.5627218614049          -2.1414787788788           1.4406985741088
C             4.4193897191024          -1.3235796797547          -1.0100093271840
H             4.6741771677835          -1.1130403199549          -2.0528491175222
H             4.4150152435170          -2.4057302320014          -0.8756469716573
C             4.4195488675425           1.3238578840877          -1.0096084135610
H             4.4153047218117           2.4059576563151          -0.8748219947811
H             4.6740418009636           1.1137115448247          -2.0526003122991


