%nproc=1
#p irc(CalcFC)
external='/mlatom/software/miniconda3/bin/python /mlatom/software/mlatom_xacs/mlatom/interfaces/gaussian_interface.py model_predict_kwargs'

2ed2a0b9-d3c8-4de2-977e-9dac85925f0d

0 1
C            -0.4469462851000           1.4369909139000           0.4897911668000
C            -1.3226688443000           0.7035760455000          -0.2900073081000
H            -0.1263963600000           1.0677220723000           1.4572149593000
H            -0.3940301454000           2.5173827827000           0.3794962736000
H            -1.8702019882000           1.2135055885000          -1.0813736421000
C            -1.3226339182000          -0.7036323318000          -0.2899995331000
C            -0.4468715762000          -1.4369950256000           0.4898072528000
H            -1.8701411880000          -1.2135979972000          -1.0813601507000
H            -0.3939113497000          -2.5173869736000           0.3795302585000
H            -0.1263372657000          -1.0677142744000           1.4572317989000
C             1.5764295952000           0.6930607322000          -0.2273725904000
C             1.5764419034000          -0.6930070546000          -0.2274004653000
H             2.0755183568000           1.2357474886000           0.5703825606000
H             1.4737086989000           1.2360380846000          -1.1601517261000
H             1.4737253880000          -1.2359460623000          -1.1602027410000
H             2.0755606047000          -1.2357103873000           0.5703212716000


