%nproc=1
#p Freq
external='/mlatom/software/miniconda3/bin/python /mlatom/software/mlatom_xacs/mlatom/interfaces/gaussian_interface.py model_predict_kwargs'

63c910d2-0dae-4dc7-a0df-90236ab99887

0 1
C             1.4207318216029           1.5556256289618          -0.4929016136539
C             1.3657760697773           0.7352582526718           0.5673896912574
H             1.4693806201394           1.1962227987113          -1.5181144748053
H             1.4269389576972           2.6333398258286          -0.3601620533323
H             1.3339544967127           1.1888867090532           1.5583474460358
C             1.3664813895873          -0.7345177515263           0.5675241436522
C             1.4227623155545          -1.5550508217398          -0.4925689514787
H             1.3346701165041          -1.1880437296779           1.5585318181902
H             1.4299880230613          -2.6327389133264          -0.3595980843459
H             1.4716387780404          -1.1958122802642          -1.5178544814382
C            -2.6194144426750           0.6650930722844          -0.0160210419629
C            -2.6184921067310          -0.6663130626078          -0.0165305633250
H            -3.5474755532143           1.2297136506391           0.0492499634567
H            -1.7010469188332           1.2376307829704          -0.0795306602985
H            -1.6993414839730          -1.2375292154011          -0.0805513133132
H            -3.5457773188288          -1.2322415368004           0.0483318529165


