%nproc=1
#p Freq
external='/mlatom/software/miniconda3/bin/python /mlatom/software/mlatom_xacs/mlatom/interfaces/gaussian_interface.py model_predict_kwargs'

08f12a90-2c75-4320-95a0-eee4f17dd218

0 1
C            -1.9300731407952           2.3000211128025          -2.3910119716713
C            -0.5087446616368           2.3019067687997          -2.6710932138723
C             0.1045618028012           1.1722233120891          -3.2128771389676
C            -0.6924720355788          -0.0000003160167          -3.5106430308444
C            -2.0617194724943          -0.0000003604358          -3.2517975038427
C            -2.6930481665179           1.1717519326488          -2.6766603995535
C            -2.1434866479148           3.0258618354970          -1.1535390607391
C            -0.8512768275320           3.4720614020120          -0.6697194111778
C             0.1532813539854           3.0175788989462          -1.6113387072139
C             1.3879605883629           2.5620509506055          -1.1426490461680
C             1.3954772519817           0.7376032207767          -2.7318180744610
C             0.1045617871116          -1.1722238510307          -3.2128769161047
C            -0.5087446345106          -2.3019074677508          -2.6710928259161
C            -1.9300730370553          -2.3000219122220          -2.3910116296445
C            -2.6930479457833          -1.1717523962646          -2.6766600405232
C            -3.7039905197718          -0.7244790401652          -1.7388353297721
C            -3.7039907661175           0.7244786150941          -1.7388354631083
C            -3.9095066041331           1.4209696932613          -0.5496076396002
C            -3.1132590676329           2.5949202229041          -0.2507283550991
C            -0.5810599332010           3.4728828196993           0.6958463933887
C            -1.5903725169756           3.0260689300108           1.6363453595244
C            -2.8311044261598           2.5949071111141           1.1719654327554
C            -3.4529255711755           1.4209365039884           1.7521646341843
C            -4.1204560095136           0.6963441764154           0.6884134308570
C            -4.1204555566623          -0.6963440547110           0.6884135804930
C            -3.9095066105415          -1.4209698877386          -0.5496073613440
C            -3.1132590129922          -2.5949204588234          -0.2507277943840
C            -2.1434866466448          -3.0258621136759          -1.1535384251507
C             1.3954772841350          -0.7376037490442          -2.7318179204202
C             0.7066112288776          -3.0175004219061           1.1822629842233
C             1.6680527367930          -2.5610442399149           0.2783452112221
C             2.4796083947490          -1.4176738350011           0.5723548889705
C             2.2873728094572          -0.7383637788662           1.7476388666924
C             1.2746256411766          -1.1717776121017           2.6821352171424
C            -0.9200995285236          -2.2995107099306           2.6980481693031
C            -1.5903724141956          -3.0260687475547           1.6363460943679
C            -0.5810597978894          -3.4728827847239           0.6958472205710
C            -0.8512768033867          -3.4720617884680          -0.6697187146991
C             0.1532814216603          -3.0175792805566          -1.6113382034234
C             1.3879606974834          -2.5620511086464          -1.1426484660220
C             2.4796082499068           1.4176740967100           0.5723545270625
C             2.2873727272273           0.7383642857878           1.7476386795420
C             1.2746256288727           1.1717782249614           2.6821350031230
C             0.6510017879375           0.0000003318280           3.2615992391065
C            -0.7135623912176           0.0000003499047           3.5446356118333
C            -1.5165928454551          -1.1716844824096           3.2538976821873
C            -2.8311042073895          -2.5949068359462           1.1719659991062
C            -3.4529255597950          -1.4209361437420           1.7521650261046
C            -2.8089542116854          -0.7244475413293           2.7728728545048
C            -2.8089541569886           0.7244480568527           2.7728726392212
C            -1.5165929511916           1.1716851573577           3.2538974742974
C            -0.9200995305392           2.2995113334331           2.6980476060072
C             0.5003952014981           2.3014991092611           2.4140320408249
C             0.7066111193771           3.0175005370238           1.1822623493329
C             1.6680527711789           2.5610444480038           0.2783446995527
C             2.0294710733952          -1.4209128114007          -1.7243594864065
C             2.0294710361686           1.4209125186762          -1.7243598013680
C             0.5003952620408          -2.3014984539731           2.4140324586649
C             3.0091828857358          -0.7989136105633          -0.7272566440681
C             3.0091827795881           0.7989135451935          -0.7272567705229
C             5.4658291779214           0.6716514149002          -0.0757354668814
C             5.4658294696404          -0.6716512860556          -0.0757352878746
C             6.3480880467322           1.5707015594798           0.7509408681359
H             6.9480766331497           2.2241246232696           0.1041003683093
H             5.7380523056671           2.2317684764837           1.3805235436407
H             7.0315540389580           1.0173167785975           1.4009471763276
C             6.3480885861283          -1.5707013348710           0.7509408840387
H             6.9480769963012          -2.2241245321950           0.1041002989718
H             7.0315544677969          -1.0173165938538           1.4009468732493
H             5.7380530406721          -2.2317684566861           1.3805238151748
C             4.4596960570631          -1.3330526763003          -0.9896551833840
H             4.7052422313860          -1.1439379561023          -2.0430880440014
H             4.4557441330304          -2.4190870278444          -0.8561517909942
C             4.4596959324033           1.3330525752481          -0.9896554609084
H             4.4557441529804           2.4190872324920          -0.8561523482739
H             4.7052425093083           1.1439377009531          -2.0430881796269


